0 1439
1 1411
2 1388
3 1372
4 1356
5 1342
6 1325
7 1311
8 1294
9 1275
10 1267
11 1258
12 1249
13 1235
14 1223
15 1214
16 1208
17 1199
18 1194
19 1184
20 1175
21 1173
22 1164
23 1159
24 1152
25 1142
26 1139
27 1129
28 1124
29 1120
30 1115
31 1110
32 1105
33 1099
34 1094
35 1087
36 1081
37 1076
38 1067
39 1060
40 1054
41 1052
42 1046
43 1041
44 1039
45 1034
46 1030
47 1024
48 1020
49 1018
50 1016
51 1012
52 1012
53 1009
54 1007
55 1004
56 1000
57 998
58 997
59 994
60 993
61 990
62 988
63 985
64 983
65 981
66 979
67 979
68 977
69 974
70 971
71 969
72 968
73 968
74 965
75 963
76 961
77 961
78 958
79 957
80 956
81 953
82 952
83 952
84 952
85 951
86 951
87 951
88 950
89 949
90 949
91 948
92 946
93 946
94 946
95 946
96 946
97 945
98 945
99 945
100 944
101 943
102 943
103 943
104 943
105 943
106 942
107 942
108 942
109 942
110 942
111 941
112 941
113 940
114 940
115 940
116 940
117 940
118 940
119 939
120 939
121 939
122 939
123 939
124 939
125 939
126 939
127 938
128 938
129 938
130 938
131 938
132 938
133 938
134 938
135 938
136 938
137 938
138 938
139 938
140 938
141 938
142 938
143 938
144 938
145 938
146 938
147 938
148 938
149 938
150 938
151 938
152 938
153 938
154 938
155 938
156 938
157 938
158 938
159 938
160 938
161 938
162 938
163 938
164 938
165 938
166 938
167 938
168 938
169 938
170 938
171 938
172 938
173 938
174 938
175 938
176 938
177 938
178 938
179 938
180 938
181 938
182 938
183 938
184 938
185 938
186 938
187 938
188 938
189 938
190 938
191 938
192 938
193 938
194 938
195 938
196 938
197 938
198 938
199 938
200 938
201 938
202 938
203 938
204 938
205 938
206 938
207 938
208 938
209 938
210 938
211 938
212 938
213 938
214 938
215 938
216 938
217 938
218 938
219 938
220 938
221 938
222 938
223 938
224 938
225 938
226 938
227 938
228 938
229 938
230 938
231 938
232 938
233 938
234 938
235 938
236 938
237 938
238 938
239 938
240 938
241 938
242 938
243 938
244 938
245 938
246 938
247 938
248 938
249 938
250 938
251 938
252 938
253 938
254 938
255 938
256 938
257 938
258 938
259 938
260 938
261 938
262 938
263 938
264 938
265 938
266 938
267 938
268 938
269 938
270 938
271 938
272 938
273 938
274 938
275 938
276 938
277 938
278 938
279 938
280 938
281 938
282 938
283 938
284 938
285 938
286 938
287 938
288 938
289 938
290 938
291 938
292 938
293 938
294 938
295 938
296 938
297 938
298 938
299 938
300 938
301 938
302 938
303 938
304 938
305 938
306 938
307 938
308 938
309 938
310 938
311 938
312 938
313 938
314 938
315 938
316 938
317 938
318 938
319 938
320 938
321 938
322 938
323 938
324 938
325 938
326 938
327 938
328 938
329 938
330 938
331 938
332 938
333 938
334 938
335 938
336 938
337 938
338 938
339 938
340 938
341 938
342 938
343 938
344 938
345 938
346 938
347 938
348 938
349 938
350 938
351 938
352 938
353 938
354 938
355 938
356 938
357 938
358 938
359 938
360 938
361 938
362 938
363 938
364 938
365 938
366 938
367 938
368 938
369 938
370 938
371 938
372 938
373 938
374 938
375 938
376 938
377 938
378 938
379 938
380 938
381 938
382 938
383 938
384 938
385 938
386 938
387 938
388 938
389 938
390 938
391 938
392 938
393 938
394 938
395 938
396 938
397 938
398 938
399 938
400 938
401 938
402 938
403 938
404 938
405 938
406 938
407 938
408 938
409 938
410 938
411 938
412 938
413 938
414 938
415 938
416 938
417 938
418 938
419 938
420 938
421 938
422 938
423 938
424 938
425 938
426 938
427 938
428 938
429 938
430 938
431 938
432 938
433 938
434 938
435 938
436 938
437 938
438 938
439 938
440 938
441 938
442 938
443 938
444 938
445 938
446 938
447 938
448 938
449 938
450 938
451 938
452 938
453 938
454 938
455 938
456 938
457 938
458 938
459 938
460 938
461 938
462 938
463 938
464 938
465 938
466 938
467 938
468 938
469 938
470 938
471 938
472 938
473 938
474 938
475 938
476 938
477 938
478 938
479 938
480 938
481 938
482 938
483 938
484 938
485 938
486 938
487 938
488 938
489 938
490 938
491 938
492 938
493 938
494 938
495 938
496 938
497 938
498 938
499 938
500 938
501 938
502 938
503 938
504 938
505 938
506 938
507 938
508 938
509 938
510 938
511 938
512 938
513 938
514 938
515 938
516 938
517 938
518 938
519 938
520 938
521 938
522 938
523 938
524 938
525 938
526 938
527 938
528 938
529 938
530 938
531 938
532 938
533 938
534 938
535 938
536 938
537 938
538 938
539 938
540 938
541 938
542 938
543 938
544 938
545 938
546 938
547 938
548 938
549 938
550 938
551 938
552 938
553 938
554 938
555 938
556 938
557 938
558 938
559 938
560 938
561 938
562 938
563 938
564 938
565 938
566 938
567 938
568 938
569 938
570 938
571 938
572 938
573 938
574 938
575 938
576 938
577 938
578 938
579 938
580 938
581 938
582 938
583 938
584 938
585 938
586 938
587 938
588 938
589 938
590 938
591 938
592 938
593 938
594 938
595 938
596 938
597 938
598 938
599 938
600 938
601 938
602 938
603 938
604 938
605 938
606 938
607 938
608 938
609 938
610 938
611 938
612 938
613 938
614 938
615 938
616 938
617 938
618 938
619 938
620 938
621 938
622 938
623 938
624 938
625 938
626 938
627 938
628 938
629 938
630 938
631 938
632 938
633 938
634 938
635 938
636 938
637 938
638 938
639 938
640 938
641 938
642 938
643 938
644 938
645 938
646 938
647 938
648 938
649 938
650 938
651 938
652 938
653 938
654 938
655 938
656 938
657 938
658 938
659 938
660 938
661 938
662 938
663 938
664 938
665 938
666 938
667 938
668 938
669 938
670 938
671 938
672 938
673 938
674 938
675 938
676 938
677 938
678 938
679 938
680 938
681 938
682 938
683 938
684 938
685 938
686 938
687 938
688 938
689 938
690 938
691 938
692 938
693 938
694 938
695 938
696 938
697 938
698 938
699 938
700 938
701 938
702 938
703 938
704 938
705 938
706 938
707 938
708 938
709 938
710 938
711 938
712 938
713 938
714 938
715 938
716 938
717 938
718 938
719 938
720 938
721 938
722 938
723 938
724 938
725 938
726 938
727 938
728 938
729 938
730 938
731 938
732 938
733 938
734 938
735 938
736 938
737 938
738 938
739 938
740 938
741 938
742 938
743 938
744 938
745 938
746 938
747 938
748 938
749 938
750 938
751 938
752 938
753 938
754 938
755 938
756 938
757 938
758 938
759 938
760 938
761 938
762 938
763 938
764 938
765 938
766 938
767 938
768 938
769 938
770 938
771 938
772 938
773 938
774 938
775 938
776 938
777 938
778 938
779 938
780 938
781 938
782 938
783 938
784 938
785 938
786 938
787 938
788 938
789 938
790 938
791 938
792 938
793 938
794 938
795 938
796 938
797 938
798 938
799 938
800 938
801 938
802 938
803 938
804 938
805 938
806 938
807 938
808 938
809 938
810 938
811 938
812 938
813 938
814 938
815 938
816 938
817 938
818 938
819 938
820 938
821 938
822 938
823 938
824 938
825 938
826 938
827 938
828 938
829 938
830 938
831 938
832 938
833 938
834 938
835 938
836 938
837 938
838 938
839 938
840 938
841 938
842 938
843 938
844 938
845 938
846 938
847 938
848 938
849 938
850 938
851 938
852 938
853 938
854 938
855 938
856 938
857 938
858 938
859 938
860 938
861 938
862 938
863 938
864 938
865 938
866 938
867 938
868 938
869 938
870 938
871 938
872 938
873 938
874 938
875 938
876 938
877 938
878 938
879 938
880 938
881 938
882 938
883 938
884 938
885 938
886 938
887 938
888 938
889 938
890 938
891 938
892 938
893 938
894 938
895 938
896 938
897 938
898 938
899 938
900 938
901 938
902 938
903 938
904 938
905 938
906 938
907 938
908 938
909 938
910 938
911 938
912 938
913 938
914 938
915 938
916 938
917 938
918 938
919 938
920 938
921 938
922 938
923 938
924 938
925 938
926 938
927 938
928 938
929 938
930 938
931 938
932 938
933 938
934 938
935 938
936 938
937 938
938 938
939 938
940 938
941 938
942 938
943 938
944 938
945 938
946 938
947 938
948 938
949 938
950 938
951 938
952 938
953 938
954 938
955 938
956 938
957 938
958 938
959 938
960 938
961 938
962 938
963 938
964 938
965 938
966 938
967 938
968 938
969 938
970 938
971 938
972 938
973 938
974 938
975 938
976 938
977 938
978 938
979 938
980 938
981 938
982 938
983 938
984 938
985 938
986 938
987 938
988 938
989 938
990 938
991 938
992 938
993 938
994 938
995 938
996 938
997 938
998 938
999 938
